(set-info :source |printed by MathSAT|)
(declare-fun |main::local_14@3| () (_ BitVec 32))
(declare-fun |main::local_14@4| () (_ BitVec 32))
(declare-fun |main::local_14@5| () (_ BitVec 32))
(declare-fun |main::local_14@6| () (_ BitVec 32))
(declare-fun |main::local_14@7| () (_ BitVec 32))
(declare-fun |main::local_14@8| () (_ BitVec 32))
(declare-fun |main::local_14@9| () (_ BitVec 32))
(assert (let ((.def_13 (bvult |main::local_14@3| (_ bv6 32))))(let ((.def_11 (= |main::local_14@3| (_ bv0 32))))(let ((.def_173 (and .def_11 .def_13)))(let ((.def_49 (bvadd (_ bv1 32) |main::local_14@3|)))(let ((.def_51 (= .def_49 |main::local_14@4|)))(let ((.def_174 (and .def_51 .def_173)))(let ((.def_53 (bvult |main::local_14@4| (_ bv6 32))))(let ((.def_175 (and .def_53 .def_174)))(let ((.def_65 (bvadd (_ bv1 32) |main::local_14@4|)))(let ((.def_67 (= .def_65 |main::local_14@5|)))(let ((.def_176 (and .def_67 .def_175)))(let ((.def_69 (bvult |main::local_14@5| (_ bv6 32))))(let ((.def_177 (and .def_69 .def_176)))(let ((.def_100 (bvadd (_ bv1 32) |main::local_14@5|)))(let ((.def_102 (= .def_100 |main::local_14@6|)))(let ((.def_178 (and .def_102 .def_177)))(let ((.def_104 (bvult |main::local_14@6| (_ bv6 32))))(let ((.def_179 (and .def_104 .def_178)))(let ((.def_117 (bvadd (_ bv1 32) |main::local_14@6|)))(let ((.def_119 (= .def_117 |main::local_14@7|)))(let ((.def_180 (and .def_119 .def_179)))(let ((.def_121 (bvult |main::local_14@7| (_ bv6 32))))(let ((.def_181 (and .def_121 .def_180)))(let ((.def_133 (bvadd (_ bv1 32) |main::local_14@7|)))(let ((.def_135 (= .def_133 |main::local_14@8|)))(let ((.def_182 (and .def_135 .def_181)))(let ((.def_137 (bvult |main::local_14@8| (_ bv6 32))))(let ((.def_183 (and .def_137 .def_182)))(let ((.def_149 (bvadd (_ bv1 32) |main::local_14@8|)))(let ((.def_151 (= .def_149 |main::local_14@9|)))(let ((.def_184 (and .def_151 .def_183)))(let ((.def_153 (bvult |main::local_14@9| (_ bv6 32))))(let ((.def_155 (not .def_153)))(let ((.def_185 (and .def_155 .def_184)))(let ((.def_158 (= |main::local_14@9| (_ bv6 32))))(let ((.def_186 (and .def_158 .def_185))).def_186)))))))))))))))))))))))))))))))))))))